13458
18310
8733
2376
11443
1090
1518
12284
4335
19571
28898
11361
3273
5200
4644
10564
5151
10560
12123
2143
2035
14016
19456
17187
4973
8446
17967
13599
8676
2050
6358
7206
21391
9269
12882
13195
5106
10734
5439
5256
12954
6121
17864
8862
208
1619
16844
5764
4296
15587
13939
20880
8152
5210
11097
7123
17063
6539
1132
7108
7769
10021
7067
20538
6634
12989
22417
10265
10939
2922
7775
12151
14782
16775
1503
3985
3896
17095
1748
16280
6852
10632
4972
7989
11972
5137
9312
14629
16967
8689
5130
11923
10216
17708
9336
7826
10336
2047
6364
